param n := 120;
param c := 10000
param : V : p w :=
   0	  75	 370
   1	  91	 286
   2	  86	 344
   3	  41	 362
   4	  31	 294
   5	  62	 344
   6	  60	 466
   7	  90	 263
   8	  45	 271
   9	  31	 485
  10	  26	 253
  11	   5	 262
  12	  88	 376
  13	  10	 304
  14	  47	 320
  15	  16	 413
  16	  86	 288
  17	  87	 299
  18	  92	 373
  19	  12	 277
  20	  60	 350
  21	  70	 426
  22	  30	 263
  23	  41	 311
  24	  97	 480
  25	  75	 255
  26	   1	 265
  27	  36	 381
  28	   4	 259
  29	  39	 360
  30	  48	 399
  31	  96	 272
  32	  26	 329
  33	  25	 429
  34	  47	 274
  35	  43	 297
  36	  35	 395
  37	  80	 258
  38	  67	 347
  39	   8	 463
  40	  19	 257
  41	  93	 280
  42	  15	 498
  43	  23	 250
  44	  23	 252
  45	  95	 412
  46	  13	 258
  47	  98	 330
  48	  52	 499
  49	  62	 250
  50	  24	 251
  51	   9	 458
  52	  19	 267
  53	  21	 275
  54	  76	 350
  55	  12	 283
  56	  39	 367
  57	  60	 434
  58	  45	 277
  59	  44	 289
  60	  99	 370
  61	  35	 273
  62	  44	 357
  63	  20	 495
  64	   5	 250
  65	  24	 255
  66	  66	 464
  67	  71	 254
  68	  73	 282
  69	  10	 361
  70	  35	 290
  71	  68	 349
  72	  17	 351
  73	  42	 251
  74	  25	 398
  75	  95	 370
  76	   6	 287
  77	  22	 343
  78	   1	 428
  79	  50	 257
  80	  51	 315
  81	  17	 445
  82	  25	 272
  83	   9	 283
  84	  45	 440
  85	  35	 254
  86	  55	 306
  87	  90	 435
  88	  39	 279
  89	   8	 286
  90	  27	 451
  91	  98	 268
  92	  26	 281
  93	  97	 430
  94	  65	 261
  95	  45	 309
  96	  97	 368
  97	  65	 274
  98	  11	 358
  99	  71	 427
 100	  64	 250
 101	  39	 323
 102	 100	 444
 103	  23	 270
 104	  80	 286
 105	  16	 494
 106	  34	 250
 107	  89	 256
 108	  45	 368
 109	  12	 300
 110	  70	 332
 111	  30	 491
 112	  22	 253
 113	  61	 256
 114	 100	 426
 115	  78	 274
 116	  34	 300
 117	  52	 495
 118	  40	 250
 119	   3	 255
;

set E :=
   0	   1
   0	   3
   0	   5
   0	  11
   0	  12
   0	  14
   0	  17
   0	  19
   0	  20
   0	  21
   0	  23
   0	  25
   0	  32
   0	  33
   0	  41
   0	  45
   0	  47
   0	  49
   0	  51
   0	  58
   0	  59
   0	  65
   0	  74
   0	  81
   0	  83
   0	  85
   0	  90
   0	  91
   0	  94
   0	 102
   0	 106
   0	 109
   0	 111
   0	 115
   0	 116
   0	 118
   0	 119
   1	   4
   1	   5
   1	  10
   1	  11
   1	  18
   1	  24
   1	  25
   1	  27
   1	  29
   1	  38
   1	  45
   1	  50
   1	  51
   1	  52
   1	  60
   1	  72
   1	  76
   1	  78
   1	  92
   1	  99
   1	 100
   1	 103
   1	 104
   1	 106
   1	 111
   1	 112
   1	 114
   1	 117
   1	 119
   2	   5
   2	  11
   2	  14
   2	  17
   2	  22
   2	  24
   2	  25
   2	  35
   2	  37
   2	  39
   2	  42
   2	  47
   2	  49
   2	  58
   2	  65
   2	  66
   2	  67
   2	  68
   2	  72
   2	  74
   2	  75
   2	  76
   2	  77
   2	  78
   2	  80
   2	  81
   2	  85
   2	  86
   2	  87
   2	  88
   2	  89
   2	  92
   2	  93
   2	  94
   2	  96
   2	  97
   2	  98
   2	 104
   2	 107
   2	 109
   2	 111
   2	 117
   3	   5
   3	   6
   3	   9
   3	  13
   3	  17
   3	  19
   3	  20
   3	  22
   3	  29
   3	  34
   3	  35
   3	  37
   3	  42
   3	  50
   3	  59
   3	  63
   3	  64
   3	  66
   3	  71
   3	  75
   3	  76
   3	  77
   3	  84
   3	  85
   3	  86
   3	  90
   3	  93
   3	  99
   3	 107
   3	 111
   3	 112
   3	 113
   3	 115
   4	   7
   4	  10
   4	  14
   4	  23
   4	  27
   4	  29
   4	  33
   4	  34
   4	  35
   4	  41
   4	  44
   4	  46
   4	  51
   4	  55
   4	  58
   4	  61
   4	  64
   4	  68
   4	  71
   4	  78
   4	  79
   4	  84
   4	  86
   4	 100
   4	 101
   4	 105
   4	 106
   4	 107
   4	 109
   4	 112
   4	 115
   4	 116
   4	 117
   4	 119
   5	   6
   5	   8
   5	   9
   5	  13
   5	  16
   5	  18
   5	  19
   5	  21
   5	  33
   5	  40
   5	  45
   5	  47
   5	  53
   5	  57
   5	  64
   5	  75
   5	  83
   5	  86
   5	  87
   5	  89
   5	  90
   5	  91
   5	  95
   5	 108
   5	 109
   5	 112
   5	 115
   5	 116
   5	 118
   6	   7
   6	  13
   6	  16
   6	  18
   6	  20
   6	  22
   6	  26
   6	  30
   6	  32
   6	  37
   6	  40
   6	  41
   6	  48
   6	  51
   6	  52
   6	  60
   6	  65
   6	  70
   6	  74
   6	  79
   6	  83
   6	  85
   6	  87
   6	  92
   6	 103
   6	 106
   6	 109
   6	 112
   6	 113
   6	 114
   6	 115
   6	 116
   6	 117
   7	  18
   7	  21
   7	  29
   7	  37
   7	  39
   7	  40
   7	  46
   7	  50
   7	  55
   7	  58
   7	  62
   7	  64
   7	  65
   7	  66
   7	  67
   7	  69
   7	  78
   7	  83
   7	  84
   7	  85
   7	  86
   7	  88
   7	  89
   7	  90
   7	  92
   7	  93
   7	  96
   7	  97
   7	  98
   7	 100
   7	 102
   7	 103
   7	 104
   7	 105
   7	 109
   7	 111
   7	 112
   7	 114
   7	 115
   7	 117
   8	   9
   8	  10
   8	  16
   8	  19
   8	  22
   8	  28
   8	  29
   8	  36
   8	  37
   8	  39
   8	  43
   8	  49
   8	  54
   8	  55
   8	  57
   8	  75
   8	  76
   8	  79
   8	  80
   8	  81
   8	  84
   8	  85
   8	  88
   8	  89
   8	  90
   8	  97
   8	  98
   8	  99
   8	 101
   8	 105
   8	 108
   8	 111
   8	 113
   8	 119
   9	  11
   9	  12
   9	  14
   9	  15
   9	  16
   9	  30
   9	  34
   9	  35
   9	  42
   9	  50
   9	  51
   9	  52
   9	  56
   9	  59
   9	  60
   9	  63
   9	  66
   9	  67
   9	  78
   9	  80
   9	  83
   9	  84
   9	  89
   9	  90
   9	  91
   9	  99
   9	 100
   9	 103
   9	 104
   9	 107
   9	 114
   9	 115
   9	 116
   9	 118
   9	 119
  10	  12
  10	  17
  10	  21
  10	  25
  10	  26
  10	  29
  10	  37
  10	  38
  10	  41
  10	  47
  10	  49
  10	  52
  10	  54
  10	  61
  10	  64
  10	  66
  10	  72
  10	  74
  10	  76
  10	  78
  10	  79
  10	  80
  10	  83
  10	  89
  10	  92
  10	  93
  10	  97
  10	 103
  10	 104
  10	 105
  10	 106
  10	 110
  10	 111
  10	 114
  10	 115
  10	 116
  10	 117
  11	  14
  11	  21
  11	  22
  11	  23
  11	  24
  11	  25
  11	  27
  11	  28
  11	  30
  11	  32
  11	  33
  11	  35
  11	  40
  11	  48
  11	  50
  11	  53
  11	  56
  11	  57
  11	  58
  11	  62
  11	  63
  11	  65
  11	  68
  11	  69
  11	  74
  11	  75
  11	  76
  11	  78
  11	  82
  11	  84
  11	  86
  11	  95
  11	  96
  11	  99
  11	 101
  11	 105
  11	 106
  11	 108
  11	 114
  11	 115
  11	 117
  12	  15
  12	  20
  12	  21
  12	  25
  12	  31
  12	  32
  12	  36
  12	  39
  12	  46
  12	  50
  12	  51
  12	  55
  12	  57
  12	  60
  12	  63
  12	  71
  12	  73
  12	  74
  12	  80
  12	  84
  12	  87
  12	  89
  12	  92
  12	 104
  12	 107
  12	 109
  12	 110
  12	 112
  12	 117
  13	  15
  13	  16
  13	  18
  13	  27
  13	  32
  13	  34
  13	  35
  13	  37
  13	  45
  13	  48
  13	  50
  13	  52
  13	  53
  13	  61
  13	  64
  13	  65
  13	  67
  13	  70
  13	  74
  13	  75
  13	  76
  13	  84
  13	  91
  13	  93
  13	  96
  13	  97
  13	 102
  13	 105
  13	 111
  13	 116
  14	  21
  14	  24
  14	  25
  14	  28
  14	  29
  14	  33
  14	  42
  14	  44
  14	  48
  14	  52
  14	  57
  14	  61
  14	  64
  14	  69
  14	  71
  14	  82
  14	  86
  14	  88
  14	  90
  14	  92
  14	  93
  14	  99
  14	 100
  14	 102
  14	 109
  14	 116
  14	 117
  15	  16
  15	  19
  15	  20
  15	  29
  15	  30
  15	  32
  15	  37
  15	  40
  15	  42
  15	  50
  15	  51
  15	  52
  15	  53
  15	  54
  15	  58
  15	  59
  15	  70
  15	  71
  15	  72
  15	  79
  15	  88
  15	  89
  15	  90
  15	  92
  15	  93
  15	  94
  15	 100
  15	 106
  15	 108
  15	 115
  15	 119
  16	  18
  16	  25
  16	  26
  16	  28
  16	  29
  16	  35
  16	  37
  16	  39
  16	  40
  16	  50
  16	  58
  16	  59
  16	  60
  16	  65
  16	  66
  16	  73
  16	  77
  16	  79
  16	  82
  16	  84
  16	  85
  16	  86
  16	  87
  16	  93
  16	  94
  16	  95
  16	 100
  16	 103
  16	 107
  16	 110
  16	 111
  16	 115
  16	 117
  17	  22
  17	  24
  17	  37
  17	  43
  17	  48
  17	  64
  17	  65
  17	  85
  17	  88
  17	  89
  17	  90
  17	  93
  17	  95
  17	  96
  17	  98
  17	 103
  17	 106
  17	 107
  17	 110
  17	 112
  17	 114
  17	 115
  18	  23
  18	  27
  18	  35
  18	  38
  18	  40
  18	  46
  18	  49
  18	  51
  18	  62
  18	  64
  18	  66
  18	  67
  18	  73
  18	  74
  18	  75
  18	  83
  18	  86
  18	  88
  18	  89
  18	  92
  18	  96
  18	  98
  18	 100
  18	 107
  18	 110
  18	 113
  18	 119
  19	  21
  19	  25
  19	  26
  19	  29
  19	  30
  19	  36
  19	  37
  19	  50
  19	  54
  19	  62
  19	  67
  19	  72
  19	  79
  19	  80
  19	  84
  19	  85
  19	  88
  19	  95
  19	  96
  19	  98
  19	  99
  19	 113
  19	 115
  19	 119
  20	  21
  20	  30
  20	  33
  20	  37
  20	  40
  20	  42
  20	  46
  20	  52
  20	  54
  20	  61
  20	  62
  20	  63
  20	  67
  20	  69
  20	  71
  20	  75
  20	  76
  20	  78
  20	  80
  20	  82
  20	  86
  20	  92
  20	  96
  20	  97
  20	 106
  20	 116
  20	 118
  21	  23
  21	  34
  21	  38
  21	  40
  21	  47
  21	  49
  21	  50
  21	  52
  21	  53
  21	  54
  21	  59
  21	  63
  21	  65
  21	  67
  21	  71
  21	  74
  21	  75
  21	  84
  21	  89
  21	  90
  21	  96
  21	  97
  21	  98
  21	 100
  21	 101
  21	 102
  21	 105
  21	 107
  21	 108
  21	 111
  21	 113
  21	 114
  21	 117
  22	  24
  22	  26
  22	  27
  22	  28
  22	  29
  22	  30
  22	  38
  22	  49
  22	  51
  22	  54
  22	  58
  22	  61
  22	  66
  22	  68
  22	  79
  22	  80
  22	  81
  22	  83
  22	  84
  22	  86
  22	  88
  22	  90
  22	  93
  22	  95
  22	  96
  22	  99
  22	 100
  22	 103
  22	 106
  22	 110
  22	 113
  22	 118
  23	  24
  23	  26
  23	  29
  23	  31
  23	  37
  23	  39
  23	  40
  23	  42
  23	  44
  23	  48
  23	  49
  23	  50
  23	  53
  23	  54
  23	  69
  23	  74
  23	  82
  23	  85
  23	  88
  23	  90
  23	  94
  23	  95
  23	  97
  23	  98
  23	 100
  23	 109
  23	 110
  23	 111
  23	 119
  24	  26
  24	  29
  24	  32
  24	  33
  24	  51
  24	  54
  24	  58
  24	  62
  24	  67
  24	  68
  24	  70
  24	  73
  24	  76
  24	  77
  24	  79
  24	  86
  24	  89
  24	  96
  24	  99
  24	 102
  24	 110
  24	 111
  24	 114
  25	  27
  25	  30
  25	  32
  25	  36
  25	  39
  25	  41
  25	  43
  25	  48
  25	  53
  25	  61
  25	  63
  25	  64
  25	  66
  25	  67
  25	  71
  25	  77
  25	  82
  25	  83
  25	  86
  25	  88
  25	  91
  25	  92
  25	  95
  25	  97
  25	  99
  25	 100
  25	 105
  25	 111
  25	 114
  25	 116
  25	 118
  26	  28
  26	  29
  26	  32
  26	  33
  26	  34
  26	  41
  26	  52
  26	  57
  26	  59
  26	  60
  26	  65
  26	  67
  26	  68
  26	  69
  26	  72
  26	  73
  26	  77
  26	  78
  26	  81
  26	  86
  26	  87
  26	  88
  26	  96
  26	 103
  26	 105
  26	 106
  26	 111
  26	 112
  26	 113
  26	 116
  27	  30
  27	  44
  27	  51
  27	  58
  27	  60
  27	  64
  27	  66
  27	  74
  27	  77
  27	  78
  27	  87
  27	  89
  27	  91
  27	  93
  27	  94
  27	 106
  27	 107
  27	 113
  27	 118
  27	 119
  28	  30
  28	  31
  28	  33
  28	  35
  28	  38
  28	  39
  28	  40
  28	  44
  28	  47
  28	  48
  28	  51
  28	  52
  28	  55
  28	  57
  28	  59
  28	  60
  28	  64
  28	  70
  28	  74
  28	  77
  28	  79
  28	  80
  28	  82
  28	  87
  28	  90
  28	  92
  28	  93
  28	  97
  28	  98
  28	 102
  28	 103
  28	 107
  28	 109
  28	 110
  28	 114
  28	 118
  28	 119
  29	  32
  29	  34
  29	  39
  29	  44
  29	  48
  29	  49
  29	  53
  29	  56
  29	  63
  29	  66
  29	  67
  29	  68
  29	  72
  29	  76
  29	  78
  29	  79
  29	  80
  29	  82
  29	  84
  29	  88
  29	 103
  29	 104
  29	 105
  29	 106
  29	 109
  29	 112
  29	 114
  29	 119
  30	  32
  30	  39
  30	  41
  30	  42
  30	  44
  30	  46
  30	  50
  30	  54
  30	  55
  30	  56
  30	  57
  30	  58
  30	  64
  30	  67
  30	  68
  30	  71
  30	  78
  30	  83
  30	  94
  30	  98
  30	 100
  30	 101
  30	 108
  30	 109
  30	 111
  30	 115
  31	  32
  31	  38
  31	  43
  31	  47
  31	  52
  31	  53
  31	  55
  31	  56
  31	  60
  31	  63
  31	  65
  31	  68
  31	  74
  31	  83
  31	  84
  31	  89
  31	  91
  31	  92
  31	  94
  31	  96
  31	  97
  31	  98
  31	 102
  31	 118
  31	 119
  32	  37
  32	  39
  32	  40
  32	  44
  32	  46
  32	  47
  32	  48
  32	  54
  32	  58
  32	  59
  32	  60
  32	  69
  32	  70
  32	  72
  32	  73
  32	  75
  32	  85
  32	  86
  32	  90
  32	  93
  32	  96
  32	 101
  32	 103
  32	 118
  32	 119
  33	  41
  33	  43
  33	  46
  33	  56
  33	  59
  33	  62
  33	  63
  33	  64
  33	  74
  33	  81
  33	  82
  33	  84
  33	  86
  33	  89
  33	  95
  33	 102
  33	 104
  33	 108
  33	 109
  33	 118
  33	 119
  34	  37
  34	  40
  34	  41
  34	  51
  34	  53
  34	  54
  34	  56
  34	  65
  34	  69
  34	  75
  34	  76
  34	  79
  34	  83
  34	  85
  34	  86
  34	  89
  34	  92
  34	  94
  34	  98
  34	 106
  34	 107
  34	 108
  34	 113
  34	 115
  34	 117
  34	 118
  34	 119
  35	  39
  35	  47
  35	  64
  35	  69
  35	  71
  35	  74
  35	  76
  35	  77
  35	  80
  35	  81
  35	  83
  35	  84
  35	  86
  35	  87
  35	  89
  35	  90
  35	  91
  35	  93
  35	  94
  35	  95
  35	 100
  35	 102
  35	 106
  35	 109
  35	 110
  35	 113
  35	 117
  35	 118
  35	 119
  36	  47
  36	  54
  36	  60
  36	  64
  36	  67
  36	  68
  36	  71
  36	  86
  36	  89
  36	  96
  36	  98
  36	 100
  36	 103
  36	 104
  36	 105
  36	 109
  36	 110
  36	 111
  36	 113
  36	 115
  36	 118
  37	  40
  37	  45
  37	  46
  37	  48
  37	  51
  37	  54
  37	  55
  37	  59
  37	  60
  37	  61
  37	  62
  37	  66
  37	  67
  37	  69
  37	  70
  37	  73
  37	  74
  37	  77
  37	  84
  37	  86
  37	  88
  37	  91
  37	  93
  37	 100
  37	 101
  37	 106
  37	 107
  37	 113
  37	 116
  37	 117
  38	  42
  38	  47
  38	  48
  38	  52
  38	  53
  38	  60
  38	  66
  38	  69
  38	  71
  38	  72
  38	  74
  38	  76
  38	  78
  38	  87
  38	  89
  38	  92
  38	  95
  38	  96
  38	  99
  38	 101
  38	 107
  38	 110
  38	 113
  38	 114
  38	 115
  38	 119
  39	  40
  39	  43
  39	  47
  39	  58
  39	  59
  39	  61
  39	  63
  39	  65
  39	  69
  39	  76
  39	  79
  39	  80
  39	  82
  39	  83
  39	  89
  39	  91
  39	  92
  39	  93
  39	  94
  39	  95
  39	  96
  39	  97
  39	  99
  39	 100
  39	 101
  39	 102
  39	 103
  39	 104
  39	 108
  39	 109
  39	 113
  39	 115
  40	  47
  40	  58
  40	  65
  40	  68
  40	  69
  40	  70
  40	  72
  40	  76
  40	  86
  40	  87
  40	  91
  40	  99
  40	 107
  40	 108
  40	 119
  41	  42
  41	  45
  41	  48
  41	  50
  41	  51
  41	  57
  41	  62
  41	  65
  41	  70
  41	  78
  41	  79
  41	  83
  41	  86
  41	  87
  41	  94
  41	  97
  41	  99
  41	 101
  41	 103
  41	 105
  41	 106
  41	 115
  41	 118
  41	 119
  42	  46
  42	  47
  42	  49
  42	  51
  42	  53
  42	  64
  42	  65
  42	  66
  42	  70
  42	  72
  42	  77
  42	  78
  42	  89
  42	  92
  42	  98
  42	  99
  42	 101
  42	 104
  42	 110
  43	  46
  43	  49
  43	  50
  43	  51
  43	  53
  43	  55
  43	  61
  43	  66
  43	  67
  43	  68
  43	  74
  43	  75
  43	  79
  43	  80
  43	  81
  43	  82
  43	  83
  43	  90
  43	  91
  43	  92
  43	  98
  43	 100
  43	 106
  43	 107
  43	 112
  44	  45
  44	  47
  44	  50
  44	  51
  44	  52
  44	  56
  44	  57
  44	  62
  44	  63
  44	  67
  44	  69
  44	  70
  44	  71
  44	  73
  44	  78
  44	  85
  44	  87
  44	  89
  44	  96
  44	 100
  44	 104
  44	 107
  44	 108
  44	 109
  44	 111
  44	 112
  44	 113
  44	 114
  44	 118
  45	  46
  45	  47
  45	  52
  45	  53
  45	  57
  45	  59
  45	  60
  45	  75
  45	  76
  45	  77
  45	  84
  45	  92
  45	  96
  45	  97
  45	  98
  45	 100
  45	 103
  45	 104
  45	 107
  45	 111
  45	 112
  45	 113
  45	 117
  46	  50
  46	  51
  46	  62
  46	  63
  46	  65
  46	  66
  46	  68
  46	  76
  46	  80
  46	  81
  46	  82
  46	  83
  46	  84
  46	  95
  46	  97
  46	 100
  46	 102
  46	 106
  46	 107
  46	 112
  46	 114
  46	 116
  47	  53
  47	  56
  47	  61
  47	  64
  47	  65
  47	  67
  47	  70
  47	  85
  47	  87
  47	  90
  47	  95
  47	 104
  47	 111
  47	 112
  47	 113
  48	  50
  48	  58
  48	  69
  48	  73
  48	  80
  48	  86
  48	  91
  48	 105
  48	 115
  48	 116
  48	 117
  49	  52
  49	  56
  49	  58
  49	  76
  49	  77
  49	  81
  49	  83
  49	  84
  49	  85
  49	  86
  49	  88
  49	  92
  49	  97
  49	 100
  49	 102
  49	 103
  49	 107
  49	 111
  49	 113
  49	 114
  50	  52
  50	  57
  50	  58
  50	  60
  50	  62
  50	  64
  50	  65
  50	  66
  50	  70
  50	  74
  50	  84
  50	  85
  50	  86
  50	  87
  50	  90
  50	  93
  50	  94
  50	  97
  50	 100
  50	 102
  50	 104
  50	 109
  50	 111
  50	 112
  50	 114
  50	 117
  50	 118
  51	  55
  51	  56
  51	  60
  51	  66
  51	  71
  51	  72
  51	  73
  51	  75
  51	  78
  51	  79
  51	  81
  51	  82
  51	  83
  51	  85
  51	  88
  51	  93
  51	  98
  51	 101
  51	 103
  51	 108
  51	 110
  51	 111
  51	 115
  51	 118
  52	  57
  52	  58
  52	  59
  52	  60
  52	  64
  52	  65
  52	  71
  52	  73
  52	  76
  52	  79
  52	  85
  52	  86
  52	  89
  52	  90
  52	  93
  52	  94
  52	  96
  52	 115
  52	 116
  52	 119
  53	  54
  53	  55
  53	  60
  53	  61
  53	  64
  53	  66
  53	  68
  53	  69
  53	  75
  53	  77
  53	  80
  53	  81
  53	  83
  53	  84
  53	  87
  53	  94
  53	  97
  53	  98
  53	 100
  53	 101
  53	 102
  53	 105
  53	 106
  53	 108
  53	 113
  53	 116
  54	  56
  54	  57
  54	  59
  54	  61
  54	  62
  54	  63
  54	  66
  54	  69
  54	  73
  54	  74
  54	  75
  54	  80
  54	  90
  54	  94
  54	 105
  54	 112
  54	 117
  54	 118
  54	 119
  55	  64
  55	  66
  55	  75
  55	  76
  55	  79
  55	  83
  55	  84
  55	  89
  55	  92
  55	  96
  55	  98
  55	 102
  55	 106
  55	 110
  55	 111
  55	 118
  55	 119
  56	  58
  56	  62
  56	  70
  56	  76
  56	  87
  56	  95
  56	 100
  56	 103
  56	 108
  56	 109
  56	 110
  56	 112
  56	 115
  56	 118
  57	  58
  57	  65
  57	  66
  57	  69
  57	  71
  57	  73
  57	  83
  57	  84
  57	  87
  57	  93
  57	  95
  57	  97
  57	 100
  57	 101
  57	 104
  57	 105
  57	 106
  57	 109
  57	 111
  57	 113
  57	 115
  58	  60
  58	  64
  58	  67
  58	  70
  58	  72
  58	  79
  58	  84
  58	  86
  58	  88
  58	  89
  58	  91
  58	  93
  58	  94
  58	  97
  58	  99
  58	 103
  58	 106
  58	 109
  58	 114
  58	 117
  59	  60
  59	  61
  59	  73
  59	  76
  59	  78
  59	  80
  59	  86
  59	  92
  59	  93
  59	  94
  59	 108
  59	 111
  59	 113
  59	 118
  60	  61
  60	  66
  60	  67
  60	  69
  60	  74
  60	  75
  60	  79
  60	  80
  60	  81
  60	  85
  60	  89
  60	  96
  60	 101
  60	 107
  60	 110
  60	 117
  61	  62
  61	  63
  61	  72
  61	  73
  61	  79
  61	  80
  61	  85
  61	  86
  61	  87
  61	  88
  61	  90
  61	  93
  61	  99
  61	 100
  61	 105
  61	 106
  61	 119
  62	  63
  62	  65
  62	  67
  62	  68
  62	  70
  62	  77
  62	  83
  62	  85
  62	  88
  62	  90
  62	  92
  62	  94
  62	  97
  62	  99
  62	 101
  62	 102
  62	 103
  62	 107
  62	 113
  62	 114
  62	 119
  63	  65
  63	  69
  63	  73
  63	  74
  63	  76
  63	  83
  63	  84
  63	  88
  63	  94
  63	 100
  63	 101
  63	 103
  63	 104
  63	 105
  63	 106
  63	 109
  63	 110
  63	 112
  63	 113
  63	 117
  63	 119
  64	  70
  64	  80
  64	  81
  64	  86
  64	  88
  64	  96
  64	 101
  64	 111
  64	 115
  64	 116
  64	 119
  65	  67
  65	  70
  65	  75
  65	  76
  65	  85
  65	  86
  65	  88
  65	  91
  65	 101
  65	 105
  65	 107
  65	 111
  65	 117
  65	 119
  66	  79
  66	  92
  66	  93
  66	  94
  66	  99
  66	 102
  66	 103
  66	 107
  66	 111
  66	 116
  67	  70
  67	  71
  67	  76
  67	  77
  67	  83
  67	  89
  67	  96
  67	  98
  67	 105
  67	 110
  67	 111
  67	 117
  68	  69
  68	  75
  68	  80
  68	  82
  68	  83
  68	  89
  68	  90
  68	  92
  68	 101
  68	 106
  68	 107
  68	 111
  68	 112
  68	 116
  68	 119
  69	  70
  69	  74
  69	  83
  69	  87
  69	  89
  69	  91
  69	  92
  69	  98
  69	 102
  69	 106
  69	 107
  69	 108
  69	 110
  69	 113
  69	 115
  69	 117
  70	  74
  70	  75
  70	  80
  70	  83
  70	  87
  70	  88
  70	  93
  70	  95
  70	 101
  70	 104
  70	 105
  70	 111
  70	 113
  70	 119
  71	  75
  71	  76
  71	  81
  71	  82
  71	  83
  71	  85
  71	  87
  71	  88
  71	  90
  71	  94
  71	  96
  71	  97
  71	  99
  71	 103
  71	 105
  71	 109
  71	 110
  71	 112
  71	 113
  71	 116
  71	 117
  71	 118
  71	 119
  72	  82
  72	  87
  72	  88
  72	  89
  72	  91
  72	  92
  72	  93
  72	 103
  72	 104
  72	 107
  72	 109
  72	 112
  72	 116
  73	  75
  73	  79
  73	  83
  73	  91
  73	  93
  73	  97
  73	  98
  73	 102
  73	 103
  73	 105
  73	 106
  73	 112
  73	 113
  73	 117
  74	  75
  74	  76
  74	  88
  74	  92
  74	  94
  74	  97
  74	 100
  74	 103
  74	 114
  74	 115
  74	 117
  75	  76
  75	  86
  75	  88
  75	  89
  75	  93
  75	  94
  75	  99
  75	 103
  75	 105
  75	 110
  75	 113
  75	 116
  75	 117
  76	  77
  76	  83
  76	  85
  76	  86
  76	  87
  76	  88
  76	  92
  76	  96
  76	  99
  76	 100
  76	 101
  76	 110
  76	 114
  76	 116
  76	 118
  76	 119
  77	  79
  77	  85
  77	  88
  77	  96
  77	 102
  77	 105
  77	 108
  77	 109
  77	 115
  77	 117
  78	  83
  78	  85
  78	  88
  78	  94
  78	  95
  78	  96
  78	 102
  78	 103
  78	 106
  78	 107
  78	 108
  78	 111
  78	 112
  79	  80
  79	  81
  79	  85
  79	  88
  79	  90
  79	  91
  79	  94
  79	 104
  79	 106
  79	 108
  79	 110
  79	 112
  79	 113
  80	  85
  80	  90
  80	  94
  80	  99
  80	 102
  80	 104
  80	 105
  80	 108
  80	 109
  80	 116
  80	 118
  81	  84
  81	  91
  81	  92
  81	 102
  81	 103
  81	 108
  81	 109
  81	 116
  81	 118
  81	 119
  82	  90
  82	  91
  82	  92
  82	  93
  82	  94
  82	  98
  82	 109
  82	 113
  82	 116
  83	  93
  83	  94
  83	  97
  83	  99
  83	 100
  83	 106
  83	 107
  83	 108
  83	 109
  83	 112
  83	 113
  83	 114
  83	 116
  83	 117
  84	  86
  84	  88
  84	  90
  84	  93
  84	  98
  84	  99
  84	 103
  84	 104
  84	 105
  84	 108
  84	 110
  84	 112
  84	 114
  84	 115
  85	  87
  85	  88
  85	  91
  85	  92
  85	  93
  85	 100
  85	 103
  85	 104
  85	 109
  85	 111
  85	 112
  85	 116
  85	 117
  86	  88
  86	  90
  86	  91
  86	  93
  86	  95
  86	 101
  86	 102
  86	 104
  86	 106
  86	 109
  86	 111
  86	 113
  86	 116
  87	  90
  87	  93
  87	  95
  87	 103
  87	 105
  87	 109
  87	 111
  87	 118
  87	 119
  88	  90
  88	  91
  88	  95
  88	  96
  88	  99
  88	 101
  88	 105
  88	 107
  88	 112
  88	 113
  88	 117
  89	  96
  89	  99
  89	 102
  89	 106
  89	 116
  90	  91
  90	  92
  90	  94
  90	  95
  90	  96
  90	  97
  90	 108
  90	 113
  90	 115
  90	 118
  90	 119
  91	  93
  91	  98
  91	 102
  91	 111
  91	 112
  91	 116
  91	 118
  92	  93
  92	  97
  92	 100
  92	 102
  92	 103
  92	 104
  92	 108
  92	 113
  92	 115
  92	 119
  93	  95
  93	  97
  93	 101
  93	 104
  93	 105
  93	 106
  93	 107
  93	 110
  93	 112
  93	 117
  94	 103
  94	 104
  94	 106
  94	 107
  94	 109
  94	 113
  94	 115
  95	  96
  95	  99
  95	 102
  95	 103
  95	 105
  95	 106
  95	 107
  95	 109
  95	 112
  95	 114
  96	 100
  96	 101
  96	 104
  96	 105
  96	 111
  96	 113
  96	 114
  97	  98
  97	  99
  97	 102
  97	 103
  97	 105
  97	 106
  97	 109
  97	 110
  97	 118
  97	 119
  98	  99
  98	 103
  98	 111
  99	 100
  99	 103
  99	 105
  99	 106
  99	 107
  99	 110
  99	 112
  99	 115
  99	 118
 100	 101
 100	 102
 100	 103
 100	 108
 100	 110
 100	 111
 100	 113
 100	 117
 100	 119
 101	 103
 101	 104
 101	 105
 101	 106
 101	 109
 101	 114
 101	 115
 102	 103
 102	 107
 102	 110
 102	 113
 102	 117
 102	 119
 103	 105
 103	 108
 103	 110
 103	 111
 103	 117
 104	 106
 104	 110
 104	 114
 104	 118
 105	 107
 105	 110
 105	 111
 105	 113
 105	 114
 105	 118
 106	 107
 106	 108
 106	 110
 106	 111
 106	 114
 106	 115
 106	 117
 107	 110
 107	 116
 107	 117
 107	 119
 108	 116
 108	 117
 108	 118
 109	 111
 109	 113
 109	 116
 109	 117
 110	 111
 110	 112
 110	 115
 110	 117
 110	 118
 111	 113
 111	 119
 112	 117
 113	 114
 113	 115
 113	 116
 114	 115
 114	 117
 115	 117
 116	 119
;
